p cnf 1206 1307
c ind 792 793 794 807 814 840 901 902 915 922 0
c ind 926 928 931 947 949 952 964 965 984 986 0
c ind 990 1001 1002 1006 1007 1008 1012 1014 785 900 0
c ind 815 827 786 787 899 790 791 898 1159 1160 0
c ind 1158 1157 1155 1156 1154 1149 1191 1196 1173 1182 0
c ind 1153 1177 1187 1204 1152 1151 1150 1190 1195 1172 0
c ind 1181 1176 1186 1203 1189 1194 1171 1180 1175 1185 0
c ind 1202 1147 1188 1193 1170 1179 1174 1184 1201 1148 0
c ind 1165 1169 1199 1146 1141 1145 1144 1143 1142 1167 0
c ind 1197 1198 1168 1139 1140 1178 1192 1183 1200 1132 0
c ind 1133 1138 1137 1136 1135 1134 788 789 1130 1131 0
c ind 1129 1128 1126 1127 1166 1125 1120 1124 1123 1122 0
c ind 1121 1162 1118 1119 1117 1112 1116 1115 1114 1113 0
c ind 1163 1110 1111 1103 1104 1109 1108 1107 1106 1105 0
c ind 1101 1102 1100 1099 1097 1098 1096 1091 1095 1094 0
c ind 1093 1092 1164 1089 1090 1088 1161 1083 1087 1086 0
c ind 1085 1084 1081 1082 1074 1075 1080 1079 1078 1077 0
c ind 1076 1072 1073 1071 1070 1068 1069 1067 1062 1066 0
c ind 1065 1064 1063 1060 1061 1059 1054 1058 1057 1056 0
c ind 1055 1052 1053 1045 1046 1051 1050 1049 1048 1047 0
c ind 1043 1044 1042 1041 1039 1040 1038 1033 1037 1036 0
c ind 1035 1034 1031 1032 1030 1025 1029 1028 1027 1026 0
c ind 1023 1024 1016 1017 1022 1021 1020 1019 1018 996 0
c ind 997 995 994 993 1015 1005 1003 1004 992 991 0
c ind 1013 1000 989 1011 1009 1010 998 999 988 987 0
c ind 980 985 983 981 982 979 972 971 978 977 0
c ind 976 975 974 973 970 969 968 967 966 784 0
c ind 959 797 958 956 957 955 954 960 961 953 0
c ind 951 962 950 963 948 946 944 945 943 942 0
c ind 941 940 939 938 905 937 935 936 934 933 0
c ind 932 930 929 927 925 923 924 921 916 920 0
c ind 917 918 912 919 914 910 911 913 909 904 0
c ind 908 906 907 903 897 890 882 896 895 894 0
c ind 893 876 875 874 892 873 891 872 871 870 0
c ind 889 888 887 886 885 884 883 881 880 879 0
c ind 878 877 869 862 854 868 867 866 865 848 0
c ind 847 846 864 845 863 844 843 842 861 860 0
c ind 859 858 857 856 855 853 852 851 850 849 0
c ind 841 839 837 838 828 829 836 835 834 833 0
c ind 832 830 831 824 823 825 826 822 821 820 0
c ind 819 817 818 816 813 812 808 809 810 811 0
c ind 804 806 803 802 805 796 801 795 800 798 0
c ind 799 1 0
c ret 610 611 612 613 614 615 616 617 618 619 0
c ret 620 621 622 623 624 625 626 627 628 629 0
c ret 630 631 632 633 634 635 636 637 638 639 0
c ret 640 641 642 643 644 645 646 647 648 649 0
c ret 650 651 652 653 654 655 656 657 658 659 0
c ret 660 661 662 663 664 665 666 667 668 669 0
c ret 670 671 672 673 674 675 676 677 678 679 0
c ret 680 681 682 683 684 685 686 687 688 689 0
c ret 690 691 692 693 694 695 696 697 698 699 0
c ret 700 701 702 703 704 705 706 707 708 709 0
c ret 710 711 712 713 714 715 716 717 718 719 0
c ret 720 721 722 723 724 725 726 727 728 729 0
c ret 730 731 732 733 734 735 736 737 738 739 0
c ret 740 741 742 743 744 745 746 747 748 305 0
c ret 311 312 313 314 315 316 317 318 319 320 0
c ret 321 322 323 324 325 749 326 750 327 328 0
c ret 751 329 752 330 331 332 333 334 335 336 0
c ret 337 338 339 340 341 342 753 754 343 344 0
c ret 345 755 346 347 756 306 348 349 350 351 0
c ret 352 353 354 355 757 356 357 358 359 360 0
c ret 758 361 759 362 760 363 761 364 365 366 0
c ret 367 368 369 370 371 372 373 374 375 762 0
c ret 376 377 378 379 380 381 763 764 382 383 0
c ret 765 384 766 385 386 387 388 307 389 390 0
c ret 391 392 393 394 395 396 397 398 399 400 0
c ret 401 767 402 768 403 769 404 405 770 406 0
c ret 407 408 409 410 411 412 413 414 415 416 0
c ret 771 417 418 419 772 420 773 421 774 775 0
c ret 422 423 424 425 426 427 428 308 429 430 0
c ret 431 432 433 434 776 777 435 436 437 438 0
c ret 439 778 440 441 442 443 444 445 446 447 0
c ret 448 779 449 450 451 452 453 780 781 454 0
c ret 455 782 456 457 783 458 459 460 461 462 0
c ret 463 464 465 466 467 468 469 470 471 472 0
c ret 473 474 475 476 477 478 479 480 481 482 0
c ret 483 484 485 486 487 488 489 490 491 492 0
c ret 493 494 495 496 497 498 499 309 500 501 0
c ret 502 503 504 505 506 507 508 509 510 511 0
c ret 512 513 514 515 516 517 518 519 520 521 0
c ret 522 523 524 525 526 527 528 529 530 531 0
c ret 532 533 534 535 536 537 538 310 539 540 0
c ret 541 542 543 544 545 546 547 548 549 550 0
c ret 551 552 553 554 555 556 557 558 559 560 0
c ret 561 562 563 564 565 566 567 568 569 570 0
c ret 571 572 573 574 575 576 577 578 579 580 0
c ret 581 582 583 584 585 586 587 588 589 590 0
c ret 591 592 593 594 595 596 597 598 599 600 0
c ret 601 602 603 604 605 606 607 608 609 0
2 3 -299 -303 0
2 132 -299 -303 0
-2 303 0
-2 299 0
-2 -3 -132 0
3 -4 -60 122 0
3 4 60 -112 0
3 4 60 122 0
3 -4 -60 -112 0
-3 4 -60 0
-3 -4 60 0
-3 112 -122 0
4 -5 -19 0
4 -5 56 0
-4 5 0
-4 19 -56 0
5 6 -12 0
-5 -6 0
-5 12 0
6 -7 -8 0
6 -7 -9 -10 0
-6 7 0
-6 8 10 0
-6 8 9 0
7 1045 0
7 -1046 1052 0
7 1046 1053 0
-7 -1045 1046 -1053 0
-7 -1045 -1046 -1052 0
8 1045 0
8 -1046 -1052 0
8 1046 -1053 0
-8 -1045 1046 1053 0
-8 -1045 -1046 1052 0
9 1054 1061 0
9 -1054 1060 0
-9 -1054 -1060 0
-9 1054 -1061 0
10 11 0
-10 -11 0
8 -9 11 0
-8 -11 0
9 -11 0
12 -13 15 0
12 -13 14 18 0
-12 13 0
-12 -14 -15 0
-12 -15 -18 0
13 -1074 -1103 -1132 0
-13 1074 0
-13 1103 0
-13 1132 0
14 1016 0
14 -1017 -1023 0
14 1017 -1024 0
-14 -1016 1017 1024 0
-14 -1016 -1017 1023 0
15 -16 -17 0
-14 15 -17 0
-15 17 0
14 -15 16 0
-14 16 0
16 1025 -1032 0
16 -1025 -1031 0
14 -16 -1025 1031 0
14 -16 1025 1032 0
17 1016 0
17 -1017 1023 0
17 1017 1024 0
-17 -1016 1017 -1024 0
-17 -1016 -1017 -1023 0
-14 18 0
18 -1025 1031 0
18 1025 1032 0
14 -18 -1025 -1031 0
14 -18 1025 -1032 0
19 -20 -55 -1182 0
19 20 -21 -55 0
-19 55 0
-19 -20 1182 0
-19 20 21 0
20 1011 -1013 0
-20 -1011 0
-20 1013 0
21 -22 -1181 0
21 22 -23 0
-21 -22 1181 0
-21 22 23 0
22 983 -985 0
-22 -983 0
-22 985 0
23 24 47 54 0
23 24 47 -50 0
-23 -24 0
-23 -47 0
-23 50 -54 0
24 -45 784 -959 0
24 25 784 959 0
-24 -784 0
-24 45 -959 0
-24 -25 959 0
25 -26 -1178 0
-25 1178 0
-25 26 0
26 -27 41 0
-26 27 0
-26 -41 0
27 -34 35 0
27 28 35 -849 0
-27 -35 0
-27 -28 34 0
-27 34 849 0
28 29 0
28 32 -848 0
28 32 854 0
-28 -29 -32 0
-28 -29 848 -854 0
29 -30 31 -842 -849 0
-29 30 0
-29 -31 0
-29 842 0
-29 849 0
30 843 844 845 0
-30 -843 0
-30 -845 0
-30 -844 0
31 846 -847 0
-31 -846 0
-31 847 0
32 33 848 854 -855 0
-32 -848 0
-32 -33 0
-32 855 0
-32 -854 0
33 862 863 0
-33 -862 0
-33 -863 0
30 34 -842 0
31 34 -842 -848 0
-34 842 0
-30 -34 848 0
-30 -31 -34 0
35 37 40 0
35 37 -39 0
35 36 37 0
-35 -37 0
-35 -36 39 -40 0
36 871 872 873 0
-36 -871 0
-36 -873 0
-36 -872 0
36 37 -870 0
37 38 -870 -876 0
-37 870 0
-36 -37 876 0
-36 -37 -38 0
38 874 -875 0
-38 -874 0
-38 875 0
39 882 883 0
39 882 890 891 0
-39 -882 0
-39 -883 -890 0
-39 -883 -891 0
38 40 -870 876 -877 0
-40 877 0
-38 -40 0
-40 870 0
-40 -876 0
41 -42 -816 0
41 -44 -816 0
41 -43 -816 0
-41 816 0
-41 42 43 44 0
42 -817 818 819 0
-42 817 0
-42 -819 0
-42 -818 0
43 822 825 826 0
-43 -822 0
-43 -826 0
-43 -825 0
44 -822 823 824 0
-44 822 0
-44 -824 0
-44 -823 0
45 -46 1179 0
25 45 46 0
-45 -46 -1179 0
-25 -45 46 0
46 925 -927 0
-46 -925 0
-46 927 0
47 -48 -49 -969 0
47 -48 -49 -970 0
-47 49 0
-47 48 0
-47 969 970 0
48 972 973 974 975 0
-48 -975 0
-48 -974 0
-48 -972 0
-48 -973 0
49 -966 -967 -968 971 0
-49 968 0
-49 -971 0
-49 966 0
-49 967 0
45 50 -51 0
-45 -50 0
-50 51 0
51 52 53 0
-51 -52 0
-51 -53 0
52 938 939 940 0
-52 -938 0
-52 -940 0
-52 -939 0
53 946 -948 0
-53 -946 0
-53 948 0
53 54 -784 0
54 -784 1180 0
-54 784 0
-53 -54 -1180 0
55 -980 987 0
-55 980 0
-55 -987 0
56 57 -980 0
21 23 56 0
23 56 57 0
21 56 -980 0
-23 -56 980 0
-21 -56 -57 0
57 59 -980 -987 0
57 58 -980 -987 0
-57 980 0
-57 987 0
-57 -58 -59 0
58 991 -992 -993 994 0
-58 -991 0
-58 -994 0
-58 993 0
-58 992 0
59 -988 989 0
-59 988 0
-59 -989 0
60 -61 -69 0
60 -61 108 0
-60 61 0
-60 69 -108 0
61 -62 65 0
61 -62 64 68 0
-61 62 0
-61 -64 -65 0
-61 -65 -68 0
62 -63 -566 -595 0
-62 566 0
-62 595 0
-62 63 0
63 -624 -653 -682 -711 0
-63 711 0
-63 624 0
-63 682 0
-63 653 0
64 537 0
64 -538 -544 0
64 538 -545 0
-64 -537 538 545 0
-64 -537 -538 544 0
65 -66 67 0
-65 66 0
-65 -67 0
66 537 0
66 -538 544 0
66 538 545 0
-66 -537 538 -545 0
-66 -537 -538 -544 0
64 67 -546 552 0
64 67 546 553 0
-64 -67 0
-67 546 -553 0
-67 -546 -552 0
-64 68 0
68 -546 552 0
68 546 553 0
64 -68 -546 -552 0
64 -68 546 -553 0
69 -70 -107 -761 0
69 70 -71 -107 0
-69 107 0
-69 -70 761 0
-69 70 71 0
70 532 -534 0
-70 -532 0
-70 534 0
71 -72 -760 0
71 72 -73 0
-71 -72 760 0
-71 72 73 0
72 504 -506 0
-72 -504 0
-72 506 0
73 74 99 106 0
73 74 99 -102 0
-73 -74 0
-73 -99 0
-73 102 -106 0
74 -97 305 -480 0
74 75 305 480 0
-74 -305 0
-74 97 -480 0
-74 -75 480 0
75 -76 -757 0
-75 757 0
-75 76 0
76 77 -81 0
-76 -77 0
-76 81 0
77 -78 -337 0
77 -80 -337 0
77 -79 -337 0
-77 337 0
-77 78 79 80 0
78 -338 339 340 0
-78 338 0
-78 -340 0
-78 -339 0
79 343 346 347 0
-79 -343 0
-79 -347 0
-79 -346 0
80 -343 344 345 0
-80 343 0
-80 -345 0
-80 -344 0
81 82 -89 0
81 82 92 -370 0
-81 -82 0
-81 89 -92 0
-81 89 370 0
82 -83 86 0
82 86 391 0
-82 -86 0
-82 83 -391 0
83 -85 394 397 0
83 -84 -85 394 0
-83 -394 0
-83 85 0
-83 84 -397 0
84 395 -396 0
-84 -395 0
-84 396 0
85 392 393 0
-85 -392 0
-85 -393 0
84 -85 86 87 -88 0
85 -86 0
-86 -87 0
-84 -86 0
-86 88 0
87 403 404 0
87 403 411 412 0
-87 -403 0
-87 -404 -411 0
-87 -404 -412 0
88 -391 394 397 -398 0
-88 398 0
-88 -397 0
-88 391 0
-88 -394 0
89 90 -363 0
89 91 -363 -369 0
-89 363 0
-89 -90 369 0
-89 -90 -91 0
90 364 365 366 0
-90 -364 0
-90 -366 0
-90 -365 0
91 367 -368 0
-91 -367 0
-91 368 0
92 93 95 0
-92 -93 0
-92 -95 0
93 -94 369 -375 0
-93 94 0
-93 375 0
-93 -369 0
-90 91 94 -363 -370 0
90 -94 0
-91 -94 0
-94 363 0
-94 370 0
-94 95 -96 -383 0
-94 95 -96 -384 0
-95 96 0
94 -95 0
-95 383 384 0
96 369 375 -376 0
-96 376 0
-96 -375 0
-96 -369 0
97 -98 758 0
75 97 98 0
-97 -98 -758 0
-75 -97 98 0
98 446 -448 0
-98 -446 0
-98 448 0
99 -100 -101 -490 0
99 -100 -101 -491 0
-99 101 0
-99 100 0
-99 490 491 0
100 493 494 495 496 0
-100 -496 0
-100 -495 0
-100 -493 0
-100 -494 0
101 -487 -488 -489 492 0
-101 489 0
-101 -492 0
-101 487 0
-101 488 0
97 102 -103 0
-97 -102 0
-102 103 0
103 104 105 0
-103 -104 0
-103 -105 0
104 459 460 461 0
-104 -459 0
-104 -461 0
-104 -460 0
105 467 -469 0
-105 -467 0
-105 469 0
105 106 -305 0
106 -305 759 0
-106 305 0
-105 -106 -759 0
107 -501 508 0
-107 501 0
-107 -508 0
108 109 -501 0
71 73 108 0
73 108 109 0
71 108 -501 0
-73 -108 501 0
-71 -108 -109 0
109 111 -501 -508 0
109 110 -501 -508 0
-109 501 0
-109 508 0
-109 -110 -111 0
110 -509 510 0
-110 509 0
-110 -510 0
111 512 -513 -514 515 0
-111 -512 0
-111 -515 0
-111 514 0
-111 513 0
-5 112 -113 0
-5 112 121 0
5 -112 0
-112 113 -121 0
20 -55 113 -114 0
-20 -55 113 -1204 0
55 -113 0
20 -113 114 0
-20 -113 1204 0
-22 114 -1203 0
22 114 -115 0
-22 -114 1203 0
22 -114 115 0
47 115 116 120 0
47 115 116 -119 0
-47 -115 0
-115 -116 0
-115 119 -120 0
116 -118 784 -959 0
116 117 784 959 0
-116 -784 0
-116 118 -959 0
-116 -117 959 0
-26 117 -1200 0
-117 1200 0
26 -117 0
-46 118 1201 0
46 117 118 0
-46 -118 -1201 0
46 -117 -118 0
-51 118 119 0
51 -119 0
-118 -119 0
53 120 -784 0
120 -784 1202 0
-120 784 0
-53 -120 -1202 0
114 121 -980 0
57 115 121 0
114 115 121 0
57 121 -980 0
-57 -114 -121 0
-115 -121 980 0
-61 122 -123 0
-61 122 131 0
61 -122 0
-122 123 -131 0
70 -107 123 -124 0
-70 -107 123 -783 0
107 -123 0
70 -123 124 0
-70 -123 783 0
-72 124 -782 0
72 124 -125 0
-72 -124 782 0
72 -124 125 0
99 125 126 130 0
99 125 126 -129 0
-99 -125 0
-125 -126 0
-125 129 -130 0
126 -128 305 -480 0
126 127 305 480 0
-126 -305 0
-126 128 -480 0
-126 -127 480 0
-76 127 -779 0
-127 779 0
76 -127 0
-98 128 780 0
98 127 128 0
-98 -128 -780 0
98 -127 -128 0
-103 128 129 0
103 -129 0
-128 -129 0
105 130 -305 0
130 -305 781 0
-130 305 0
-105 -130 -781 0
124 131 -501 0
109 125 131 0
124 125 131 0
109 131 -501 0
-109 -124 -131 0
-125 -131 501 0
132 133 142 -151 -278 0
132 -133 -142 -151 -278 0
-132 278 0
-132 -133 142 0
-132 151 0
-132 133 -142 0
-5 133 -134 0
-5 133 141 0
5 -133 0
-133 134 -141 0
20 -55 134 -135 0
-20 -55 134 -1177 0
55 -134 0
20 -134 135 0
-20 -134 1177 0
-22 135 -1176 0
22 135 -136 0
-22 -135 1176 0
22 -135 136 0
47 136 137 140 0
47 136 137 -139 0
-47 -136 0
-136 -137 0
-136 139 -140 0
137 -138 784 -959 0
26 137 784 959 0
-137 -784 0
-137 138 -959 0
-26 -137 959 0
-46 138 1174 0
26 46 138 0
-46 -138 -1174 0
-26 46 -138 0
-51 138 139 0
51 -139 0
-138 -139 0
53 140 -784 0
140 -784 1175 0
-140 784 0
-53 -140 -1175 0
135 141 -980 0
57 136 141 0
135 136 141 0
57 141 -980 0
-57 -135 -141 0
-136 -141 980 0
-61 142 -143 0
-61 142 150 0
61 -142 0
-142 143 -150 0
70 -107 143 -144 0
-70 -107 143 -756 0
107 -143 0
70 -143 144 0
-70 -143 756 0
-72 144 -755 0
72 144 -145 0
-72 -144 755 0
72 -144 145 0
99 145 146 149 0
99 145 146 -148 0
-99 -145 0
-145 -146 0
-145 148 -149 0
146 -147 305 -480 0
76 146 305 480 0
-146 -305 0
-146 147 -480 0
-76 -146 480 0
-98 147 753 0
76 98 147 0
-98 -147 -753 0
-76 98 -147 0
-103 147 148 0
103 -148 0
-147 -148 0
105 149 -305 0
149 -305 754 0
-149 305 0
-105 -149 -754 0
144 150 -501 0
109 145 150 0
144 145 150 0
109 150 -501 0
-109 -144 -150 0
-145 -150 501 0
151 -152 -201 -257 -268 0
151 -152 -201 257 268 0
-151 201 0
-151 257 -268 0
-151 152 0
-151 -257 268 0
152 -153 -169 -192 0
152 153 169 183 0
152 153 169 -192 0
152 -153 -169 183 0
-152 153 -169 0
-152 -153 169 0
-152 -183 192 0
153 -154 -155 0
153 -154 -167 0
153 -154 -166 0
-153 154 0
-153 155 166 167 0
-12 154 -1045 0
-154 1045 0
12 -154 0
155 158 -159 0
-51 155 156 -159 0
-155 159 0
-155 -156 -158 0
51 -155 -158 0
-46 156 1193 0
46 156 157 0
-46 -156 -1193 0
46 -156 -157 0
-26 157 -1192 0
-157 1192 0
26 -157 0
53 158 -784 0
158 -784 1194 0
-158 784 0
-53 -158 -1194 0
159 -160 165 0
-159 160 0
-159 -165 0
47 160 161 0
-47 -160 0
-160 -161 0
-22 161 -980 0
161 -162 -980 0
-161 980 0
22 -161 162 0
-20 162 163 987 0
-59 162 163 -987 0
-162 -163 0
59 -162 -987 0
20 -162 987 0
58 163 -164 0
-58 -163 0
-163 164 0
164 -980 -987 -988 989 0
-164 988 0
-164 -989 0
-164 980 0
-164 987 0
-156 165 784 -959 0
157 165 784 959 0
-165 -784 0
156 -165 -959 0
-157 -165 959 0
-20 -55 166 -1196 0
-166 1196 0
20 -166 0
55 -166 0
-22 167 -168 -1195 0
-167 1195 0
22 -167 0
-167 168 0
162 168 -980 0
-168 980 0
-162 -168 0
-61 169 -170 0
-61 169 -181 0
-61 169 -180 0
61 -169 0
-169 170 180 181 0
170 173 -174 0
-103 170 171 -174 0
-170 174 0
-170 -171 -173 0
103 -170 -173 0
-98 171 772 0
98 171 172 0
-98 -171 -772 0
98 -171 -172 0
-76 172 -771 0
-172 771 0
76 -172 0
105 173 -305 0
173 -305 773 0
-173 305 0
-105 -173 -773 0
174 -175 179 0
-174 175 0
-174 -179 0
99 175 176 0
-99 -175 0
-175 -176 0
-72 176 -501 0
176 -177 -501 0
-176 501 0
72 -176 177 0
-70 177 178 508 0
-110 177 178 -508 0
-177 -178 0
110 -177 -508 0
70 -177 508 0
-110 111 178 -501 -508 0
110 -178 0
-111 -178 0
-178 501 0
-178 508 0
-171 179 305 -480 0
172 179 305 480 0
-179 -305 0
171 -179 -480 0
-172 -179 480 0
-70 -107 180 -775 0
-180 775 0
70 -180 0
107 -180 0
-72 181 -182 -774 0
-181 774 0
72 -181 0
-181 182 0
177 182 -501 0
-182 501 0
-177 -182 0
-154 183 -184 0
-154 183 -191 0
-154 183 -190 0
154 -183 0
-183 184 190 191 0
184 187 -188 0
-51 184 185 -188 0
-184 188 0
-184 -185 -187 0
51 -184 -187 0
-46 185 1184 0
46 185 186 0
-46 -185 -1184 0
46 -185 -186 0
-26 186 -1183 0
-186 1183 0
26 -186 0
53 187 -784 0
187 -784 1185 0
-187 784 0
-53 -187 -1185 0
-160 188 189 0
160 -188 0
-188 -189 0
-185 189 784 -959 0
186 189 784 959 0
-189 -784 0
185 -189 -959 0
-186 -189 959 0
-20 -55 190 -1187 0
-190 1187 0
20 -190 0
55 -190 0
-22 -168 191 -1186 0
-191 1186 0
22 -191 0
168 -191 0
-62 192 199 -537 0
-62 192 -193 -537 0
-192 537 0
62 -192 0
-192 193 -199 0
193 196 -197 0
-103 193 194 -197 0
-193 197 0
-193 -194 -196 0
103 -193 -196 0
-98 194 763 0
98 194 195 0
-98 -194 -763 0
98 -194 -195 0
-76 195 -762 0
-195 762 0
76 -195 0
105 196 -305 0
196 -305 764 0
-196 305 0
-105 -196 -764 0
-175 197 198 0
175 -197 0
-197 -198 0
-194 198 305 -480 0
195 198 305 480 0
-198 -305 0
194 -198 -480 0
-195 -198 480 0
70 199 200 0
107 199 200 0
199 200 766 0
-199 -200 0
-70 -107 -199 -766 0
-72 -182 200 -765 0
-200 765 0
72 -200 0
182 -200 0
201 202 203 215 -227 0
201 202 -203 -215 -227 0
-201 227 0
-201 -203 215 0
-201 -202 0
-201 203 -215 0
183 -192 202 0
-183 -202 0
192 -202 0
203 -207 305 0
104 203 -204 -207 0
-203 207 0
-203 204 -305 0
-104 -203 -305 0
204 424 -778 0
204 -205 -424 0
-204 205 -424 0
-204 424 778 0
-81 205 -740 0
77 -81 205 206 0
81 -205 0
-205 -206 740 0
-77 -205 740 0
206 316 777 0
-206 -316 0
-206 -777 0
207 208 -211 0
-207 -208 0
-207 211 0
204 208 209 0
204 205 208 0
205 208 -209 305 0
-204 -208 209 0
-205 -208 -209 0
-204 -208 -305 0
209 -210 480 481 484 0
-209 210 0
-209 -484 0
-209 -480 0
-209 -481 0
210 482 483 0
-210 -482 0
-210 -483 0
-62 211 -212 0
62 -211 0
-211 212 0
65 212 -213 0
68 212 -213 -537 0
-212 213 0
-65 -68 -212 0
-65 -212 537 0
99 213 214 0
99 111 213 0
99 213 501 0
-99 -213 0
-111 -213 -214 -501 0
-110 214 -508 0
-214 508 0
110 -214 0
215 216 -222 -226 0
215 216 -222 784 0
-215 222 0
-215 -216 0
-215 226 -784 0
216 217 221 0
216 219 221 0
216 217 -219 784 0
-216 -217 -219 0
-216 219 -221 0
-216 -221 -784 0
-27 217 -1161 0
-27 41 217 218 0
27 -217 0
-217 -218 1161 0
-41 -217 1161 0
218 795 1198 0
-218 -795 0
-218 -1198 0
219 -220 959 960 0
-219 220 0
-219 -960 0
-219 -959 0
220 961 962 963 0
-220 -961 0
-220 -963 0
-220 -962 0
221 903 -1199 0
-217 221 -903 0
217 -221 -903 0
-221 903 1199 0
222 -223 -225 0
-222 223 0
-222 225 0
15 223 -224 0
18 223 -224 -1016 0
-223 224 0
-15 -18 -223 0
-15 -223 1016 0
47 164 224 0
47 58 224 0
-47 -224 0
-58 -164 -224 0
6 -13 225 0
-6 -225 0
13 -225 0
52 -221 226 0
-52 -226 0
221 -226 0
227 -228 -237 -245 0
227 228 237 -245 0
-227 245 0
-227 -228 237 0
-227 228 -237 0
-222 228 -229 -234 0
-222 228 230 -234 0
-228 234 0
222 -228 0
-228 229 -230 0
229 959 960 0
-229 -959 0
-229 -960 0
230 231 -903 0
-27 230 -233 903 0
-230 -231 -903 0
27 -230 903 0
-230 233 903 0
-27 231 -232 0
27 -231 0
-231 232 0
232 -1161 -1163 0
41 232 1161 0
232 -1161 -1167 0
-41 -232 1161 0
-232 -1161 1163 1167 0
233 -1161 1163 1169 0
-233 1161 0
-233 -1169 0
-233 -1163 0
234 235 784 0
52 230 234 235 0
-234 -235 0
-230 -234 -784 0
-52 -234 -784 0
231 235 -236 0
220 -230 235 0
220 235 -236 0
-230 231 235 0
230 -235 236 0
-220 -231 -235 0
-219 236 784 0
-236 -784 0
219 -236 0
-211 237 238 0
211 -237 0
-237 -238 0
209 238 -239 0
238 243 244 0
238 -239 243 0
-238 239 -244 0
-209 -238 -243 0
-238 239 -243 0
239 240 -424 0
-81 239 -242 424 0
-239 -240 -424 0
81 -239 424 0
-239 242 424 0
-81 240 -241 0
81 -240 0
-240 241 0
241 -740 -742 0
77 241 740 0
241 -740 -746 0
-77 -241 740 0
-241 -740 742 746 0
242 -740 742 748 0
-242 740 0
-242 -748 0
-242 -742 0
209 243 305 0
-240 243 305 0
-243 -305 0
-209 240 -243 0
104 244 -305 0
-244 305 0
-104 -244 0
245 246 248 250 -251 0
245 -246 -248 250 -251 0
-245 -250 0
-245 246 -248 0
-245 251 0
-245 -246 248 0
-62 -81 -212 246 -247 0
-246 247 0
62 -246 0
212 -246 0
81 -246 0
247 305 -740 742 0
104 247 -740 742 0
-247 740 0
-247 -742 0
-104 -247 -305 0
-27 -223 -225 248 -249 0
-248 249 0
27 -248 0
225 -248 0
223 -248 0
249 784 -1161 1163 0
52 249 -1161 1163 0
-249 1161 0
-249 -1163 0
-52 -249 -784 0
-7 -8 -10 250 0
-7 -9 -10 250 0
10 -250 0
7 -250 0
8 9 -250 0
17 251 -252 0
16 251 -252 0
18 251 -252 0
-251 252 0
-16 -17 -18 -251 0
28 35 252 -253 0
-34 35 252 -253 0
-252 253 0
-35 -252 0
-28 34 -252 0
41 -224 253 254 -255 0
224 -253 0
-253 -254 0
-41 -253 0
-253 255 0
-52 254 -784 0
-254 784 0
52 -254 0
-13 255 256 -788 0
-13 255 256 789 0
13 -255 0
-255 -256 0
-255 788 -789 0
256 786 787 0
-256 -786 0
-256 -787 0
-61 176 257 258 0
-61 257 258 267 0
61 -257 0
-257 -258 0
-176 -257 -267 0
258 -260 261 0
72 258 259 261 0
-258 -261 0
-258 -259 260 0
-72 -258 260 0
-70 259 508 -770 0
70 -259 0
-259 770 0
-259 -508 0
72 260 501 0
260 501 769 0
178 260 501 0
-260 -501 0
-72 -178 -260 -769 0
99 261 262 266 0
99 261 262 -265 0
-99 -261 0
-261 -262 0
-261 265 -266 0
262 -264 305 -480 0
262 263 305 480 0
-262 -305 0
-262 264 -480 0
-262 -263 480 0
-76 263 -309 0
-263 309 0
76 -263 0
-98 264 767 0
98 263 264 0
-98 -264 -767 0
98 -263 -264 0
-103 264 265 0
103 -265 0
-264 -265 0
105 266 -305 0
266 -305 768 0
-266 305 0
-105 -266 -768 0
-177 259 267 0
259 267 769 0
-259 -267 0
177 -267 -769 0
-5 161 268 269 0
-5 268 269 277 0
5 -268 0
-268 -269 0
-161 -268 -277 0
269 271 980 0
22 269 270 271 0
-269 -271 0
-269 -270 -980 0
-22 -269 -980 0
-20 270 987 -1191 0
20 -270 0
-270 1191 0
-270 -987 0
47 271 272 276 0
47 271 272 -275 0
-47 -271 0
-271 -272 0
-271 275 -276 0
272 -274 784 -959 0
272 273 784 959 0
-272 -784 0
-272 274 -959 0
-272 -273 959 0
-26 273 -788 0
-273 788 0
26 -273 0
-46 274 1188 0
46 273 274 0
-46 -274 -1188 0
46 -273 -274 0
-51 274 275 0
51 -275 0
-274 -275 0
53 276 -784 0
276 -784 1189 0
-276 784 0
-53 -276 -1189 0
-162 270 277 0
270 277 1190 0
-270 -277 0
162 -277 -1190 0
112 278 -279 -289 0
-122 278 279 289 0
112 278 279 289 0
-122 278 -279 -289 0
-278 279 -289 0
-278 -279 289 0
-112 122 -278 0
-5 279 -280 0
-5 279 288 0
5 -279 0
-279 280 -288 0
20 -55 280 -281 0
-20 -55 280 -1173 0
55 -280 0
20 -280 281 0
-20 -280 1173 0
-22 281 -1172 0
22 281 -282 0
-22 -281 1172 0
22 -281 282 0
47 282 283 287 0
47 282 283 -286 0
-47 -282 0
-282 -283 0
-282 286 -287 0
283 284 -784 1171 0
53 283 284 -784 0
-283 784 0
-283 -284 0
-53 -283 -1171 0
-51 284 285 0
51 -284 0
-284 -285 0
26 46 285 0
-46 285 1170 0
46 285 789 0
-46 -285 -1170 0
-26 46 -285 -789 0
-26 46 286 -789 0
-26 286 -789 959 0
26 -286 0
-286 789 0
-46 -286 -959 0
287 784 1170 0
287 784 959 0
46 287 784 0
-287 -784 0
-46 -287 -959 -1170 0
281 288 -980 0
57 282 288 0
281 282 288 0
57 288 -980 0
-57 -281 -288 0
-282 -288 980 0
-61 289 -290 0
-61 289 298 0
61 -289 0
-289 290 -298 0
70 -107 290 -291 0
-70 -107 290 -752 0
107 -290 0
70 -290 291 0
-70 -290 752 0
-72 291 -751 0
72 291 -292 0
-72 -291 751 0
72 -291 292 0
99 292 293 297 0
99 292 293 -296 0
-99 -292 0
-292 -293 0
-292 296 -297 0
293 294 -305 750 0
105 293 294 -305 0
-293 305 0
-293 -294 0
-105 -293 -750 0
-103 294 295 0
103 -294 0
-294 -295 0
76 98 295 0
-98 295 749 0
98 295 310 0
-98 -295 -749 0
-76 98 -295 -310 0
-76 98 296 -310 0
-76 296 -310 480 0
76 -296 0
-296 310 0
-98 -296 -480 0
297 305 749 0
297 305 480 0
98 297 305 0
-297 -305 0
-98 -297 -480 -749 0
291 298 -501 0
109 292 298 0
291 292 298 0
109 298 -501 0
-109 -291 -298 0
-292 -298 501 0
77 82 -213 299 -300 0
-77 -299 0
-299 300 0
213 -299 0
-82 -299 0
-63 300 -301 305 0
-63 104 300 -301 0
-300 301 0
63 -300 0
-104 -300 -305 0
301 -302 -309 0
301 -302 310 0
-301 302 0
-301 309 -310 0
302 -307 -566 -595 0
302 -308 -566 -595 0
-302 595 0
-302 566 0
-302 307 308 0
-89 303 304 0
-93 303 304 0
-95 303 304 0
-303 -304 0
89 93 95 -303 0
-64 -66 304 0
66 -304 0
64 -304 0
1 2 0
-1 -2 0
1205 0

